WARNING: for repeatability, setting FPU to use double precision
============================[ Problem Statistics ]=============================
|                                                                             |
|  Number of variables:            50                                         |
|  Number of clauses:             218                                         |
|  Parse time:                   0.00 s                                       |
|                                                                             |
============================[ Search Statistics ]==============================
| Conflicts |          ORIGINAL         |          LEARNT          | Progress |
|           |    Vars  Clauses Literals |    Limit  Clauses Lit/Cl |          |
===============================================================================
===============================================================================
restarts              : 1
conflicts             : 95             (248042 /sec)
decisions             : 112            (0.00 % random) (292428 /sec)
propagations          : 1417           (3699739 /sec)
conflict literals     : 392            (23.59 % deleted)
Memory used           : 20.00 MB
CPU time              : 0.000383 s

UNSATISFIABLE
